c Reduced graph for myciel7gb generated by Cyril Grelier
p edge 191 2360
e 1 5
e 1 6
e 1 8
e 1 27
e 1 31
e 1 33
e 1 36
e 1 38
e 1 39
e 1 40
e 1 43
e 1 46
e 1 47
e 1 50
e 1 55
e 1 58
e 1 60
e 1 61
e 1 63
e 1 65
e 1 67
e 1 68
e 1 69
e 1 77
e 1 79
e 1 80
e 1 81
e 1 85
e 1 89
e 1 93
e 1 95
e 1 96
e 1 99
e 1 102
e 1 105
e 1 107
e 1 110
e 1 118
e 1 120
e 1 121
e 1 122
e 1 124
e 1 126
e 1 128
e 1 130
e 1 135
e 1 139
e 1 142
e 1 145
e 1 146
e 1 147
e 1 149
e 1 152
e 1 154
e 1 155
e 1 159
e 1 161
e 1 168
e 1 169
e 1 172
e 1 179
e 1 185
e 1 186
e 1 190
e 2 8
e 2 9
e 2 16
e 2 20
e 2 21
e 2 25
e 2 26
e 2 47
e 2 59
e 2 60
e 2 63
e 2 64
e 2 72
e 2 73
e 2 79
e 2 81
e 2 82
e 2 85
e 2 88
e 2 93
e 2 111
e 2 117
e 2 119
e 2 122
e 2 123
e 2 125
e 2 126
e 2 128
e 2 130
e 2 131
e 2 139
e 2 147
e 2 153
e 2 161
e 2 162
e 2 173
e 2 175
e 2 178
e 2 181
e 2 190
e 3 8
e 3 9
e 3 14
e 3 18
e 3 21
e 3 25
e 3 27
e 3 46
e 3 54
e 3 60
e 3 64
e 3 68
e 3 72
e 3 73
e 3 75
e 3 81
e 3 84
e 3 86
e 3 117
e 3 118
e 3 124
e 3 126
e 3 127
e 3 128
e 3 130
e 3 137
e 3 146
e 3 147
e 3 152
e 3 153
e 3 169
e 3 170
e 3 187
e 3 190
e 4 11
e 4 23
e 4 35
e 4 43
e 4 55
e 4 81
e 4 91
e 4 93
e 4 96
e 4 100
e 4 101
e 4 102
e 4 118
e 4 143
e 4 185
e 5 20
e 5 21
e 5 54
e 5 56
e 5 72
e 5 82
e 5 83
e 5 100
e 5 137
e 5 143
e 5 163
e 6 9
e 6 20
e 6 21
e 6 54
e 6 71
e 6 91
e 6 92
e 6 143
e 6 162
e 7 8
e 7 9
e 7 14
e 7 16
e 7 18
e 7 19
e 7 21
e 7 25
e 7 27
e 7 33
e 7 40
e 7 46
e 7 47
e 7 50
e 7 60
e 7 63
e 7 64
e 7 68
e 7 72
e 7 73
e 7 75
e 7 78
e 7 79
e 7 81
e 7 84
e 7 85
e 7 86
e 7 88
e 7 93
e 7 107
e 7 117
e 7 118
e 7 119
e 7 122
e 7 123
e 7 124
e 7 126
e 7 127
e 7 128
e 7 129
e 7 130
e 7 131
e 7 135
e 7 139
e 7 146
e 7 147
e 7 152
e 7 153
e 7 154
e 7 157
e 7 158
e 7 161
e 7 169
e 7 170
e 7 173
e 7 178
e 7 179
e 7 181
e 7 182
e 7 183
e 7 185
e 7 187
e 7 189
e 7 190
e 8 11
e 8 13
e 8 15
e 8 23
e 8 28
e 8 32
e 8 35
e 8 44
e 8 48
e 8 53
e 8 56
e 8 66
e 8 71
e 8 74
e 8 76
e 8 83
e 8 87
e 8 92
e 8 94
e 8 97
e 8 98
e 8 104
e 8 106
e 8 109
e 8 112
e 8 113
e 8 114
e 8 115
e 8 116
e 8 132
e 8 133
e 8 136
e 8 138
e 8 140
e 8 141
e 8 143
e 8 148
e 8 150
e 8 151
e 8 164
e 8 174
e 8 176
e 8 184
e 8 188
e 9 17
e 9 28
e 9 32
e 9 43
e 9 45
e 9 49
e 9 52
e 9 55
e 9 58
e 9 61
e 9 62
e 9 67
e 9 77
e 9 96
e 9 100
e 9 101
e 9 102
e 9 104
e 9 105
e 9 108
e 9 120
e 9 144
e 9 148
e 9 149
e 9 155
e 9 159
e 9 163
e 9 165
e 9 171
e 9 172
e 9 176
e 9 186
e 10 11
e 10 21
e 10 23
e 10 35
e 10 52
e 10 63
e 10 72
e 10 74
e 10 78
e 10 81
e 10 83
e 10 84
e 10 93
e 10 100
e 10 101
e 10 118
e 10 119
e 10 129
e 10 131
e 10 140
e 10 143
e 10 147
e 10 151
e 10 152
e 10 163
e 10 179
e 10 185
e 10 187
e 11 12
e 11 20
e 11 22
e 11 25
e 11 26
e 11 36
e 11 39
e 11 45
e 11 54
e 11 57
e 11 60
e 11 61
e 11 64
e 11 73
e 11 82
e 11 117
e 11 128
e 11 137
e 11 144
e 11 156
e 11 162
e 11 172
e 11 190
e 12 23
e 12 27
e 12 35
e 12 40
e 12 43
e 12 47
e 12 55
e 12 65
e 12 71
e 12 81
e 12 91
e 12 93
e 12 95
e 12 96
e 12 98
e 12 102
e 12 118
e 12 126
e 12 138
e 12 143
e 12 145
e 12 168
e 12 174
e 12 185
e 13 20
e 13 36
e 13 43
e 13 47
e 13 55
e 13 58
e 13 59
e 13 81
e 13 85
e 13 91
e 13 93
e 13 110
e 13 122
e 13 125
e 13 126
e 13 128
e 13 145
e 13 162
e 13 168
e 13 172
e 14 20
e 14 35
e 14 43
e 14 52
e 14 55
e 14 77
e 14 82
e 14 83
e 14 100
e 14 101
e 14 104
e 14 120
e 14 125
e 14 143
e 14 148
e 14 151
e 14 163
e 14 175
e 15 21
e 15 25
e 15 54
e 15 60
e 15 72
e 15 81
e 15 84
e 15 86
e 15 100
e 15 117
e 15 118
e 15 127
e 15 137
e 15 146
e 15 147
e 15 152
e 15 163
e 15 169
e 15 187
e 16 43
e 16 45
e 16 49
e 16 54
e 16 61
e 16 100
e 16 102
e 16 105
e 16 108
e 16 120
e 16 137
e 16 144
e 16 148
e 16 149
e 16 163
e 16 172
e 16 176
e 16 186
e 17 21
e 17 23
e 17 27
e 17 54
e 17 71
e 17 75
e 17 81
e 17 84
e 17 91
e 17 118
e 17 126
e 17 138
e 17 143
e 18 20
e 18 43
e 18 55
e 18 58
e 18 91
e 18 100
e 18 101
e 18 125
e 18 144
e 18 165
e 18 172
e 19 20
e 19 43
e 19 54
e 19 71
e 19 91
e 19 143
e 19 145
e 19 162
e 19 164
e 20 23
e 20 24
e 20 27
e 20 28
e 20 29
e 20 31
e 20 32
e 20 33
e 20 38
e 20 40
e 20 41
e 20 42
e 20 44
e 20 46
e 20 49
e 20 50
e 20 51
e 20 53
e 20 62
e 20 65
e 20 66
e 20 68
e 20 70
e 20 74
e 20 75
e 20 78
e 20 84
e 20 86
e 20 87
e 20 89
e 20 90
e 20 94
e 20 95
e 20 96
e 20 98
e 20 99
e 20 102
e 20 103
e 20 105
e 20 106
e 20 107
e 20 108
e 20 109
e 20 112
e 20 115
e 20 116
e 20 118
e 20 124
e 20 127
e 20 129
e 20 132
e 20 135
e 20 136
e 20 138
e 20 140
e 20 141
e 20 142
e 20 146
e 20 149
e 20 152
e 20 154
e 20 155
e 20 157
e 20 158
e 20 159
e 20 160
e 20 166
e 20 167
e 20 169
e 20 170
e 20 171
e 20 176
e 20 179
e 20 180
e 20 182
e 20 183
e 20 185
e 20 186
e 20 187
e 20 189
e 21 28
e 21 30
e 21 31
e 21 32
e 21 34
e 21 36
e 21 38
e 21 39
e 21 41
e 21 42
e 21 43
e 21 45
e 21 49
e 21 53
e 21 55
e 21 58
e 21 61
e 21 62
e 21 65
e 21 66
e 21 67
e 21 69
e 21 77
e 21 80
e 21 89
e 21 90
e 21 95
e 21 96
e 21 97
e 21 99
e 21 102
e 21 104
e 21 105
e 21 108
e 21 110
e 21 114
e 21 120
e 21 121
e 21 132
e 21 136
e 21 142
e 21 144
e 21 145
e 21 148
e 21 149
e 21 155
e 21 156
e 21 159
e 21 164
e 21 165
e 21 167
e 21 168
e 21 171
e 21 172
e 21 176
e 21 186
e 22 23
e 22 27
e 22 31
e 22 35
e 22 40
e 22 43
e 22 47
e 22 55
e 22 63
e 22 65
e 22 71
e 22 74
e 22 77
e 22 79
e 22 80
e 22 81
e 22 83
e 22 87
e 22 89
e 22 93
e 22 95
e 22 96
e 22 98
e 22 102
e 22 115
e 22 118
e 22 120
e 22 121
e 22 124
e 22 126
e 22 130
e 22 133
e 22 135
e 22 138
e 22 140
e 22 143
e 22 145
e 22 147
e 22 150
e 22 151
e 22 152
e 22 159
e 22 168
e 22 174
e 22 179
e 22 185
e 22 186
e 23 25
e 23 26
e 23 30
e 23 34
e 23 36
e 23 37
e 23 39
e 23 45
e 23 57
e 23 58
e 23 59
e 23 60
e 23 61
e 23 64
e 23 67
e 23 69
e 23 73
e 23 82
e 23 85
e 23 110
e 23 111
e 23 117
e 23 122
e 23 123
e 23 125
e 23 128
e 23 134
e 23 139
e 23 144
e 23 156
e 23 161
e 23 162
e 23 165
e 23 172
e 23 173
e 23 175
e 23 177
e 23 178
e 23 181
e 23 190
e 23 191
e 24 26
e 24 35
e 24 43
e 24 47
e 24 55
e 24 59
e 24 63
e 24 71
e 24 77
e 24 79
e 24 80
e 24 81
e 24 82
e 24 83
e 24 93
e 24 111
e 24 120
e 24 121
e 24 125
e 24 126
e 24 130
e 24 133
e 24 143
e 24 145
e 24 147
e 24 150
e 24 151
e 24 162
e 24 168
e 24 174
e 24 175
e 25 28
e 25 35
e 25 43
e 25 53
e 25 55
e 25 65
e 25 66
e 25 71
e 25 91
e 25 95
e 25 96
e 25 98
e 25 102
e 25 138
e 25 143
e 25 145
e 25 164
e 25 168
e 25 174
e 26 28
e 26 44
e 26 62
e 26 84
e 26 91
e 26 96
e 26 100
e 26 101
e 26 102
e 26 103
e 26 108
e 26 109
e 26 118
e 26 127
e 26 129
e 26 146
e 26 149
e 26 154
e 26 155
e 26 185
e 26 189
e 27 37
e 27 45
e 27 48
e 27 52
e 27 56
e 27 82
e 27 100
e 27 101
e 27 104
e 27 125
e 27 144
e 27 148
e 27 163
e 27 165
e 27 175
e 27 184
e 27 191
e 28 54
e 28 60
e 28 64
e 28 72
e 28 73
e 28 81
e 28 82
e 28 117
e 28 126
e 28 128
e 28 130
e 28 137
e 28 147
e 28 153
e 28 162
e 28 190
e 29 35
e 29 43
e 29 47
e 29 55
e 29 59
e 29 71
e 29 81
e 29 91
e 29 93
e 29 125
e 29 126
e 29 143
e 29 145
e 29 162
e 29 168
e 29 174
e 30 54
e 30 72
e 30 74
e 30 81
e 30 83
e 30 84
e 30 100
e 30 118
e 30 137
e 30 143
e 30 147
e 30 152
e 30 163
e 30 187
e 31 37
e 31 91
e 31 100
e 31 101
e 31 117
e 31 119
e 31 125
e 31 173
e 31 184
e 32 54
e 32 73
e 32 81
e 32 91
e 32 117
e 32 126
e 32 128
e 32 162
e 33 54
e 33 71
e 33 91
e 33 92
e 33 143
e 33 162
e 33 164
e 34 54
e 34 81
e 34 84
e 34 91
e 34 100
e 34 118
e 34 143
e 35 36
e 35 38
e 35 39
e 35 42
e 35 45
e 35 46
e 35 49
e 35 54
e 35 57
e 35 60
e 35 61
e 35 64
e 35 68
e 35 73
e 35 86
e 35 99
e 35 105
e 35 108
e 35 117
e 35 127
e 35 128
e 35 137
e 35 144
e 35 146
e 35 149
e 35 156
e 35 160
e 35 166
e 35 167
e 35 169
e 35 170
e 35 172
e 35 190
e 36 44
e 36 48
e 36 52
e 36 56
e 36 72
e 36 74
e 36 78
e 36 83
e 36 84
e 36 100
e 36 101
e 36 109
e 36 112
e 36 119
e 36 129
e 36 131
e 36 140
e 36 143
e 36 151
e 36 163
e 36 184
e 36 187
e 37 43
e 37 54
e 37 71
e 37 74
e 37 81
e 37 83
e 37 87
e 37 95
e 37 102
e 37 118
e 37 120
e 37 121
e 37 124
e 37 126
e 37 130
e 37 137
e 37 138
e 37 143
e 37 145
e 37 147
e 37 150
e 37 152
e 37 186
e 38 48
e 38 52
e 38 56
e 38 72
e 38 82
e 38 83
e 38 100
e 38 101
e 38 119
e 38 125
e 38 131
e 38 143
e 38 151
e 38 163
e 38 175
e 38 184
e 39 44
e 39 84
e 39 91
e 39 100
e 39 101
e 39 109
e 39 119
e 39 129
e 39 143
e 39 184
e 40 45
e 40 54
e 40 56
e 40 82
e 40 100
e 40 137
e 40 144
e 40 148
e 40 163
e 41 54
e 41 72
e 41 81
e 41 82
e 41 83
e 41 100
e 41 137
e 41 143
e 41 147
e 41 163
e 42 81
e 42 91
e 42 93
e 42 100
e 42 101
e 42 119
e 42 125
e 42 143
e 43 44
e 43 48
e 43 51
e 43 56
e 43 57
e 43 64
e 43 70
e 43 72
e 43 73
e 43 75
e 43 76
e 43 78
e 43 84
e 43 86
e 43 88
e 43 92
e 43 94
e 43 103
e 43 106
e 43 109
e 43 112
e 43 113
e 43 116
e 43 117
e 43 119
e 43 123
e 43 127
e 43 129
e 43 131
e 43 134
e 43 141
e 43 153
e 43 157
e 43 158
e 43 160
e 43 166
e 43 170
e 43 173
e 43 177
e 43 178
e 43 180
e 43 181
e 43 182
e 43 183
e 43 184
e 43 187
e 43 188
e 43 189
e 43 191
e 44 47
e 44 55
e 44 58
e 44 59
e 44 60
e 44 61
e 44 63
e 44 67
e 44 69
e 44 77
e 44 79
e 44 80
e 44 81
e 44 82
e 44 85
e 44 93
e 44 110
e 44 111
e 44 120
e 44 121
e 44 122
e 44 125
e 44 126
e 44 128
e 44 130
e 44 139
e 44 145
e 44 147
e 44 161
e 44 162
e 44 168
e 44 172
e 44 175
e 44 190
e 45 47
e 45 71
e 45 75
e 45 81
e 45 84
e 45 91
e 45 93
e 45 98
e 45 118
e 45 119
e 45 126
e 45 129
e 45 138
e 45 143
e 45 157
e 45 174
e 45 185
e 46 48
e 46 52
e 46 56
e 46 82
e 46 83
e 46 100
e 46 101
e 46 104
e 46 125
e 46 143
e 46 148
e 46 151
e 46 163
e 46 175
e 46 184
e 47 49
e 47 54
e 47 56
e 47 100
e 47 108
e 47 137
e 47 144
e 47 148
e 47 163
e 47 176
e 48 54
e 48 81
e 48 91
e 48 95
e 48 102
e 48 118
e 48 126
e 48 128
e 48 145
e 48 146
e 48 149
e 48 172
e 49 59
e 49 71
e 49 81
e 49 91
e 49 93
e 49 119
e 49 125
e 49 126
e 49 143
e 49 162
e 49 174
e 50 54
e 50 56
e 50 82
e 50 83
e 50 100
e 50 137
e 50 143
e 50 148
e 50 163
e 51 54
e 51 81
e 51 82
e 51 83
e 51 100
e 51 120
e 51 137
e 51 143
e 51 147
e 51 163
e 52 53
e 52 54
e 52 57
e 52 71
e 52 73
e 52 75
e 52 91
e 52 92
e 52 94
e 52 95
e 52 126
e 52 128
e 52 138
e 52 145
e 52 162
e 52 164
e 52 166
e 52 167
e 53 60
e 53 63
e 53 72
e 53 81
e 53 82
e 53 85
e 53 93
e 53 100
e 53 101
e 53 117
e 53 119
e 53 123
e 53 125
e 53 131
e 53 139
e 53 147
e 53 163
e 53 173
e 53 175
e 54 55
e 54 58
e 54 59
e 54 62
e 54 63
e 54 65
e 54 66
e 54 67
e 54 69
e 54 70
e 54 77
e 54 78
e 54 79
e 54 80
e 54 85
e 54 88
e 54 89
e 54 90
e 54 93
e 54 96
e 54 98
e 54 101
e 54 103
e 54 104
e 54 106
e 54 107
e 54 109
e 54 110
e 54 111
e 54 112
e 54 113
e 54 114
e 54 115
e 54 116
e 54 119
e 54 122
e 54 123
e 54 125
e 54 129
e 54 131
e 54 133
e 54 134
e 54 135
e 54 136
e 54 139
e 54 140
e 54 142
e 54 151
e 54 154
e 54 155
e 54 157
e 54 158
e 54 159
e 54 161
e 54 165
e 54 168
e 54 171
e 54 173
e 54 174
e 54 175
e 54 177
e 54 178
e 54 179
e 54 180
e 54 181
e 54 182
e 54 183
e 54 184
e 54 185
e 54 188
e 54 189
e 54 191
e 55 56
e 55 57
e 55 64
e 55 72
e 55 73
e 55 75
e 55 76
e 55 84
e 55 86
e 55 92
e 55 94
e 55 117
e 55 127
e 55 137
e 55 141
e 55 153
e 55 160
e 55 166
e 55 170
e 55 187
e 56 58
e 56 65
e 56 81
e 56 85
e 56 91
e 56 93
e 56 95
e 56 96
e 56 102
e 56 110
e 56 118
e 56 122
e 56 126
e 56 128
e 56 145
e 56 146
e 56 149
e 56 154
e 56 155
e 56 168
e 56 172
e 56 185
e 57 63
e 57 74
e 57 77
e 57 81
e 57 83
e 57 93
e 57 96
e 57 100
e 57 101
e 57 102
e 57 118
e 57 120
e 57 140
e 57 143
e 57 147
e 57 151
e 57 152
e 57 159
e 57 163
e 57 179
e 57 185
e 57 186
e 58 71
e 58 72
e 58 74
e 58 75
e 58 76
e 58 83
e 58 84
e 58 87
e 58 92
e 58 94
e 58 137
e 58 138
e 58 141
e 58 143
e 58 150
e 58 153
e 58 187
e 59 74
e 59 84
e 59 86
e 59 100
e 59 102
e 59 105
e 59 108
e 59 118
e 59 127
e 59 137
e 59 146
e 59 149
e 59 152
e 59 163
e 59 169
e 59 176
e 59 186
e 59 187
e 60 66
e 60 71
e 60 91
e 60 92
e 60 94
e 60 98
e 60 106
e 60 109
e 60 138
e 60 143
e 60 164
e 60 174
e 60 184
e 60 188
e 61 71
e 61 75
e 61 84
e 61 91
e 61 92
e 61 94
e 61 98
e 61 106
e 61 109
e 61 119
e 61 129
e 61 138
e 61 143
e 61 157
e 61 174
e 61 184
e 61 188
e 62 71
e 62 72
e 62 81
e 62 82
e 62 83
e 62 126
e 62 130
e 62 137
e 62 143
e 62 147
e 62 150
e 62 153
e 62 162
e 63 91
e 63 92
e 63 94
e 63 108
e 63 144
e 63 164
e 63 166
e 63 167
e 64 91
e 64 96
e 64 100
e 64 101
e 64 102
e 64 143
e 65 72
e 65 82
e 65 100
e 65 117
e 65 137
e 65 163
e 66 72
e 66 81
e 66 82
e 66 100
e 66 117
e 66 137
e 66 147
e 66 163
e 67 71
e 67 75
e 67 84
e 67 91
e 67 92
e 67 94
e 67 138
e 67 143
e 68 91
e 68 100
e 68 101
e 68 125
e 68 143
e 68 184
e 69 84
e 69 91
e 69 100
e 69 143
e 70 81
e 70 91
e 70 100
e 70 143
e 71 85
e 71 86
e 71 100
e 71 101
e 71 103
e 71 105
e 71 108
e 71 117
e 71 123
e 71 127
e 71 139
e 71 144
e 71 146
e 71 149
e 71 154
e 71 155
e 71 163
e 71 165
e 71 169
e 71 171
e 71 172
e 71 173
e 71 180
e 71 189
e 71 191
e 72 91
e 72 95
e 72 96
e 72 102
e 72 108
e 72 110
e 72 144
e 72 145
e 72 149
e 72 155
e 72 164
e 72 165
e 72 167
e 72 168
e 72 172
e 73 74
e 73 77
e 73 83
e 73 96
e 73 100
e 73 101
e 73 102
e 73 104
e 73 120
e 73 140
e 73 143
e 73 148
e 73 151
e 73 159
e 73 163
e 73 176
e 73 186
e 74 85
e 74 91
e 74 110
e 74 117
e 74 122
e 74 125
e 74 128
e 74 144
e 74 162
e 74 165
e 74 172
e 74 173
e 74 177
e 74 178
e 75 77
e 75 82
e 75 100
e 75 101
e 75 104
e 75 120
e 75 125
e 75 144
e 75 148
e 75 163
e 75 165
e 75 172
e 75 175
e 76 81
e 76 85
e 76 91
e 76 93
e 76 96
e 76 100
e 76 101
e 76 102
e 76 118
e 76 146
e 76 149
e 76 154
e 76 155
e 76 172
e 76 185
e 77 84
e 77 91
e 77 92
e 77 94
e 77 117
e 77 127
e 77 166
e 78 91
e 78 144
e 78 145
e 78 162
e 78 164
e 78 172
e 79 91
e 79 100
e 79 108
e 79 144
e 80 84
e 80 91
e 80 100
e 80 117
e 80 127
e 81 90
e 81 92
e 81 94
e 81 97
e 81 103
e 81 104
e 81 106
e 81 108
e 81 109
e 81 112
e 81 113
e 81 114
e 81 116
e 81 132
e 81 134
e 81 136
e 81 141
e 81 144
e 81 148
e 81 156
e 81 160
e 81 164
e 81 165
e 81 166
e 81 167
e 81 171
e 81 176
e 81 177
e 81 180
e 81 184
e 81 188
e 81 191
e 82 84
e 82 91
e 82 94
e 82 95
e 82 96
e 82 98
e 82 102
e 82 103
e 82 106
e 82 108
e 82 109
e 82 118
e 82 127
e 82 129
e 82 138
e 82 146
e 82 149
e 82 154
e 82 155
e 82 157
e 82 158
e 82 166
e 82 167
e 82 185
e 82 189
e 83 85
e 83 91
e 83 103
e 83 108
e 83 110
e 83 117
e 83 122
e 83 127
e 83 128
e 83 144
e 83 146
e 83 149
e 83 154
e 83 155
e 83 158
e 83 165
e 83 166
e 83 167
e 83 172
e 83 173
e 83 177
e 83 178
e 83 189
e 84 97
e 84 104
e 84 110
e 84 111
e 84 114
e 84 120
e 84 121
e 84 125
e 84 144
e 84 145
e 84 148
e 84 156
e 84 162
e 84 164
e 84 165
e 84 168
e 84 172
e 84 175
e 85 87
e 85 92
e 85 94
e 85 97
e 85 132
e 85 137
e 85 138
e 85 141
e 85 143
e 85 148
e 85 150
e 85 164
e 85 176
e 86 91
e 86 125
e 86 143
e 86 145
e 86 162
e 86 164
e 86 168
e 86 174
e 87 91
e 87 100
e 87 101
e 87 117
e 87 125
e 87 144
e 87 165
e 87 172
e 87 173
e 88 91
e 88 100
e 88 102
e 88 108
e 88 144
e 88 149
e 88 172
e 89 91
e 89 100
e 89 117
e 90 91
e 90 100
e 90 143
e 91 97
e 91 99
e 91 104
e 91 105
e 91 107
e 91 111
e 91 112
e 91 113
e 91 114
e 91 115
e 91 116
e 91 120
e 91 121
e 91 123
e 91 124
e 91 130
e 91 131
e 91 132
e 91 133
e 91 134
e 91 135
e 91 136
e 91 137
e 91 139
e 91 140
e 91 141
e 91 142
e 91 147
e 91 148
e 91 150
e 91 151
e 91 152
e 91 153
e 91 156
e 91 159
e 91 160
e 91 161
e 91 163
e 91 169
e 91 170
e 91 171
e 91 175
e 91 176
e 91 179
e 91 180
e 91 181
e 91 182
e 91 183
e 91 186
e 91 187
e 91 190
e 91 191
e 92 93
e 92 96
e 92 100
e 92 101
e 92 102
e 92 105
e 92 118
e 92 120
e 92 139
e 92 146
e 92 147
e 92 149
e 92 152
e 92 154
e 92 155
e 92 159
e 92 163
e 92 169
e 92 172
e 92 179
e 92 185
e 92 186
e 93 94
e 93 97
e 93 108
e 93 132
e 93 137
e 93 141
e 93 144
e 93 148
e 93 156
e 93 160
e 93 164
e 93 166
e 93 167
e 93 176
e 94 100
e 94 101
e 94 120
e 94 125
e 94 139
e 94 147
e 94 163
e 94 172
e 94 175
e 95 100
e 95 101
e 95 117
e 95 119
e 95 123
e 95 125
e 95 131
e 95 163
e 95 173
e 95 175
e 95 184
e 95 191
e 96 117
e 96 137
e 96 153
e 96 162
e 97 100
e 97 101
e 97 117
e 97 118
e 97 119
e 97 127
e 97 129
e 97 146
e 97 154
e 97 173
e 97 185
e 97 189
e 98 100
e 98 117
e 98 137
e 98 144
e 98 163
e 98 172
e 99 100
e 99 101
e 99 119
e 99 125
e 99 143
e 99 184
e 100 106
e 100 107
e 100 110
e 100 111
e 100 113
e 100 114
e 100 115
e 100 116
e 100 121
e 100 122
e 100 124
e 100 126
e 100 128
e 100 130
e 100 132
e 100 133
e 100 134
e 100 135
e 100 136
e 100 138
e 100 141
e 100 142
e 100 145
e 100 150
e 100 153
e 100 156
e 100 157
e 100 158
e 100 160
e 100 161
e 100 162
e 100 164
e 100 166
e 100 167
e 100 168
e 100 170
e 100 174
e 100 177
e 100 178
e 100 181
e 100 182
e 100 183
e 100 188
e 100 190
e 101 121
e 101 124
e 101 126
e 101 128
e 101 130
e 101 132
e 101 137
e 101 138
e 101 141
e 101 145
e 101 150
e 101 153
e 101 156
e 101 160
e 101 162
e 101 164
e 101 166
e 101 167
e 101 170
e 101 190
e 102 111
e 102 113
e 102 117
e 102 119
e 102 123
e 102 125
e 102 131
e 102 134
e 102 153
e 102 162
e 102 173
e 102 175
e 102 177
e 102 178
e 102 181
e 102 184
e 102 188
e 102 191
e 103 120
e 103 121
e 103 126
e 103 130
e 103 137
e 103 143
e 103 145
e 103 147
e 103 150
e 103 162
e 104 117
e 104 118
e 104 126
e 104 127
e 104 128
e 104 146
e 105 119
e 105 125
e 105 143
e 105 162
e 105 174
e 105 184
e 105 188
e 106 120
e 106 137
e 106 147
e 106 163
e 106 172
e 107 143
e 108 111
e 108 119
e 108 125
e 108 126
e 108 130
e 108 131
e 108 133
e 108 143
e 108 147
e 108 150
e 108 151
e 108 153
e 108 162
e 108 174
e 108 175
e 109 120
e 109 121
e 109 126
e 109 128
e 109 130
e 109 137
e 109 145
e 109 147
e 109 162
e 109 172
e 109 190
e 110 137
e 110 143
e 110 163
e 110 187
e 111 118
e 111 127
e 111 146
e 111 149
e 112 126
e 112 128
e 112 145
e 112 162
e 112 172
e 113 118
e 113 146
e 113 149
e 113 172
e 114 117
e 114 118
e 114 127
e 114 146
e 115 117
e 115 144
e 115 172
e 116 172
e 117 120
e 117 121
e 117 132
e 117 133
e 117 136
e 117 138
e 117 140
e 117 143
e 117 145
e 117 148
e 117 150
e 117 151
e 117 159
e 117 164
e 117 168
e 117 174
e 117 176
e 117 186
e 118 125
e 118 134
e 118 144
e 118 148
e 118 156
e 118 162
e 118 164
e 118 165
e 118 175
e 118 177
e 118 184
e 118 188
e 118 191
e 119 120
e 119 121
e 119 132
e 119 137
e 119 144
e 119 145
e 119 148
e 119 149
e 119 156
e 119 164
e 119 167
e 119 172
e 119 176
e 119 186
e 120 127
e 120 129
e 120 157
e 120 158
e 120 166
e 120 173
e 120 177
e 120 178
e 120 184
e 120 188
e 120 189
e 121 127
e 121 129
e 121 173
e 121 184
e 121 189
e 122 137
e 122 143
e 122 148
e 122 163
e 122 176
e 123 138
e 123 143
e 123 145
e 123 164
e 124 125
e 124 144
e 124 165
e 124 184
e 125 127
e 125 132
e 125 137
e 125 138
e 125 141
e 125 146
e 125 149
e 125 152
e 125 160
e 125 166
e 125 167
e 125 169
e 125 170
e 125 176
e 125 186
e 125 187
e 126 144
e 126 148
e 126 163
e 126 165
e 126 171
e 126 176
e 126 180
e 126 184
e 126 191
e 127 133
e 127 143
e 127 145
e 127 148
e 127 150
e 127 151
e 127 162
e 127 164
e 127 168
e 127 174
e 127 175
e 128 140
e 128 143
e 128 148
e 128 151
e 128 163
e 128 176
e 128 184
e 129 137
e 129 144
e 129 145
e 129 148
e 129 156
e 129 162
e 129 164
e 129 172
e 130 144
e 130 165
e 130 184
e 131 144
e 131 145
e 131 149
e 131 164
e 131 167
e 131 172
e 132 173
e 133 144
e 133 146
e 133 149
e 133 172
e 134 143
e 135 144
e 137 154
e 137 155
e 137 157
e 137 158
e 137 165
e 137 168
e 137 173
e 137 174
e 137 177
e 137 178
e 137 184
e 137 185
e 137 188
e 137 189
e 138 139
e 138 144
e 138 163
e 138 165
e 138 172
e 138 173
e 138 175
e 138 191
e 139 143
e 139 164
e 140 144
e 140 162
e 140 172
e 141 172
e 142 143
e 143 144
e 143 146
e 143 149
e 143 154
e 143 155
e 143 156
e 143 158
e 143 160
e 143 161
e 143 165
e 143 166
e 143 167
e 143 169
e 143 170
e 143 171
e 143 172
e 143 173
e 143 177
e 143 178
e 143 180
e 143 181
e 143 183
e 143 189
e 143 190
e 143 191
e 144 147
e 144 150
e 144 151
e 144 152
e 144 153
e 144 157
e 144 174
e 144 179
e 144 182
e 144 185
e 144 187
e 145 163
e 145 173
e 145 180
e 145 184
e 145 187
e 145 189
e 145 191
e 146 148
e 146 150
e 146 151
e 146 162
e 146 164
e 146 174
e 146 175
e 146 184
e 146 188
e 147 164
e 147 165
e 147 166
e 147 167
e 147 177
e 147 184
e 147 188
e 148 154
e 148 157
e 148 158
e 148 173
e 148 178
e 148 185
e 148 189
e 149 150
e 149 151
e 149 153
e 149 162
e 149 174
e 149 175
e 149 184
e 149 188
e 150 154
e 150 155
e 150 165
e 150 172
e 150 173
e 150 189
e 151 166
e 151 167
e 151 172
e 152 162
e 152 164
e 152 165
e 152 177
e 152 184
e 152 188
e 153 155
e 153 165
e 153 172
e 154 162
e 154 164
e 155 162
e 156 185
e 157 163
e 157 172
e 158 163
e 159 162
e 162 163
e 162 169
e 162 171
e 162 176
e 162 179
e 162 180
e 162 185
e 162 186
e 162 187
e 162 189
e 163 164
e 163 166
e 163 167
e 163 168
e 163 174
e 163 177
e 163 178
e 163 188
e 164 169
e 164 173
e 164 179
e 164 185
e 164 187
e 164 189
e 165 187
e 166 175
e 167 175
e 168 187
e 169 174
e 169 184
e 169 188
e 172 174
e 172 182
e 172 184
e 172 187
e 172 188
e 173 176
e 173 186
e 176 178
e 177 186
e 178 186
e 184 186
e 184 190
e 186 188
